43 442
1 2 3 4 6 7 9 13 16 17 19 21 23 24 26 27 35 37 38 40 41 42
0 2 3 8 10 14 16 27 30 34 35 38 39 40 42
0 1 4 5 6 7 10 12 14 15 19 21 22 24 25 27 28 29 30 32 33 35 38 41
0 1 4 7 10 12 14 15 18 19 21 22 24 25 27 28 30 34 37 39 40
0 2 3 5 6 7 8 10 12 13 18 23 24 26 27 32 35 36 37 38 39 40 41 42
2 4 8 10 11 12 14 16 17 18 19 21 23 24 26 28 31 32 33 34 38 40 42
0 2 4 8 12 16 18 19 22 23 24 25 28 29 32 37 38 39 40 42
0 2 3 4 8 9 15 17 19 20 22 24 25 27 29 30 33 35 38 39 40 42
1 4 5 6 7 12 13 14 15 17 18 19 21 23 24 28 30 32 33 35 38
0 7 12 13 15 18 19 20 21 22 23 24 25 28 31 32 33 34 35 36 41
1 2 3 4 5 13 14 16 17 18 20 24 26 32 34 35 38 41 42
5 12 16 17 18 21 22 25 27 28 29 35 38 40 41 42
2 3 4 5 6 8 9 11 13 14 15 16 18 20 21 24 25 29 31 33 35 40 42
0 4 8 9 10 12 14 15 17 19 21 24 25 26 28 30 31 33 34 36 37 39
1 2 3 5 8 10 12 13 19 20 23 25 29 30 32 33 34 36 38 39 40
2 3 7 8 9 12 13 16 17 19 22 23 25 26 27 31 34 35 36 37 38 39 40
0 1 5 6 10 11 12 15 20 22 24 28 29 30 31 32 33 34 35 39 41
0 5 7 8 10 11 13 15 20 21 22 26 27 32 33 35 36 38 39
3 4 5 6 8 9 10 11 12 24 25 27 36 40 41
0 2 3 5 6 7 8 9 13 14 15 22 23 27 31 34 35 36 37 39 41
7 9 10 12 14 16 17 22 24 26 27 29 30 31 33 34 35 36 37 38 42
0 2 3 5 8 9 11 12 13 17 26 28 31 33 34 35 36 38 41 42
2 3 6 7 9 11 15 16 17 19 20 23 26 27 28 29 32 34 35 38 40 42
0 4 5 6 8 9 14 15 19 22 24 29 33 34 36 40 41
0 2 3 4 5 6 7 8 9 10 12 13 16 18 20 23 26 27 30 31 34 35 37 39 40 41 42
2 3 6 7 9 11 12 13 14 15 18 28 29 32 33 36 37 39 40 41
0 4 5 10 13 15 17 20 21 22 24 28 31 32 34 36 42
0 1 2 3 4 7 11 15 17 18 19 20 22 24 30 31 34 37 38 39
2 3 5 6 8 9 11 13 16 21 22 25 26 29 30 31 35 36 38
2 6 7 11 12 14 16 20 22 23 25 28 32 36 39 40 41 42
1 2 3 7 8 13 14 16 20 24 27 28 37 38 39 40 42
5 9 12 13 15 16 19 20 21 24 26 27 28 34 35 36 37 42
2 4 5 6 8 9 10 14 16 17 22 25 26 29 33 34 36 38 42
2 5 7 8 9 12 13 14 16 17 20 21 23 25 32 36 38 40 41 42
1 3 5 9 10 13 14 15 16 19 20 21 22 23 24 26 27 31 32 35 37 40 41
0 1 2 4 7 8 9 10 11 12 15 16 17 19 20 21 22 24 28 31 34 37 39 40 41 42
4 9 13 14 15 17 18 19 20 21 23 25 26 28 29 31 32 33 38
0 3 4 6 13 15 19 20 24 25 27 30 31 34 35 38 39 42
0 1 2 4 5 6 7 8 10 11 14 15 17 20 21 22 27 28 30 32 33 36 37 40 41
1 3 4 6 7 13 14 15 16 17 19 24 25 27 29 30 35 37 41
0 1 3 4 5 6 7 11 12 14 15 18 22 23 24 25 29 30 33 34 35 38 41
0 2 4 9 10 11 16 18 19 21 23 24 25 29 33 34 35 38 39 40 42
0 1 4 5 6 7 10 11 12 20 21 22 24 26 29 30 31 32 33 35 37 41
